#number of items n
40

#knapsack capacity b
515

#constraint coefficients a
48 20 39 13 25 16 50 24 42 27 31 44 31 45 27 49 29 6 17 10 48 49 13 38 35 39 4 40 12 1 42 12 17 4 3 20 13 2 12 44 

#linear coefficients c
0 61 47 0 0 96 0 0 57 0 0 0 47 0 0 0 0 11 0 0 0 0 0 91 22 0 0 0 0 0 0 0 0 25 16 0 0 0 0 43 

#quadratic coefficients C: i < j
0 77 82 76 17 0 58 0 0 37 0 0 31 26 25 0 0 0 0 0 0 0 0 39 18 0 0 0 24 0 0 61 0 64 0 0 0 0 0 
0 0 47 0 0 0 0 0 9 0 18 2 0 94 0 0 0 18 0 0 0 0 0 59 7 58 76 19 0 0 46 21 75 0 0 0 0 0 
26 26 0 0 0 83 0 52 0 0 55 0 0 0 0 0 43 91 0 39 0 0 71 0 0 2 0 46 0 0 0 0 0 0 0 0 6 
0 85 88 0 0 26 0 51 89 0 0 0 0 0 0 0 51 0 0 0 25 68 66 0 0 0 20 0 0 0 93 0 29 0 0 0 
18 56 0 50 0 0 90 0 0 0 68 0 0 0 0 83 0 0 24 0 0 0 0 81 0 0 0 0 0 0 58 80 0 0 0 
0 0 50 54 0 24 63 0 82 0 0 0 94 0 0 0 0 10 0 0 0 0 0 0 0 0 0 0 0 0 0 55 0 73 
8 0 0 0 54 63 0 18 0 8 0 0 0 0 0 0 0 67 11 0 19 0 62 0 0 67 82 91 0 0 11 0 0 
0 0 0 0 0 0 0 95 0 25 4 0 0 0 0 0 0 0 62 12 0 0 0 0 44 0 0 47 0 0 0 24 
17 19 0 59 0 0 49 80 0 0 0 0 68 0 0 0 99 60 0 0 0 0 0 0 0 98 0 0 0 0 0 
0 28 0 0 0 0 0 0 0 0 0 95 0 0 0 0 0 45 0 0 37 0 76 78 0 0 97 55 0 60 
0 0 0 81 0 10 0 0 0 0 0 0 90 98 0 71 0 0 0 0 0 39 0 0 0 0 27 0 0 
0 62 0 0 0 68 0 0 0 72 0 66 0 0 99 0 0 81 98 0 0 0 79 16 0 0 0 0 
0 0 15 0 15 0 0 0 0 0 5 67 53 0 27 0 38 93 99 0 64 0 0 0 88 0 99 
0 0 0 0 4 0 0 0 0 35 0 17 0 39 0 0 72 0 0 0 0 35 0 0 0 0 
0 0 0 0 0 0 0 0 0 37 0 0 0 0 0 0 0 52 0 41 0 0 39 0 0 
0 0 0 0 93 65 0 74 16 0 28 0 82 1 29 0 0 0 0 30 73 0 0 0 
17 0 0 0 30 0 0 0 0 0 49 0 0 61 36 100 82 33 0 0 0 0 0 
0 0 0 0 90 0 0 0 48 0 8 44 0 0 0 0 0 0 0 0 0 0 
33 0 53 0 0 56 10 0 71 0 49 13 28 43 0 0 0 0 0 21 1 
0 0 100 0 0 0 0 10 0 0 32 0 0 34 0 0 38 0 30 86 
0 0 0 0 47 0 0 0 0 0 0 0 0 0 0 0 0 0 0 
0 0 0 0 0 26 0 0 0 0 53 44 0 7 0 0 0 0 
0 0 0 0 0 0 0 0 0 0 0 0 0 31 0 1 0 
0 0 0 0 96 0 0 0 98 46 0 0 0 0 5 52 
0 0 0 0 0 0 0 0 97 94 0 80 32 0 0 
0 0 0 0 0 0 0 0 0 0 0 0 63 0 
68 16 0 28 38 30 0 0 30 0 0 0 97 
0 0 72 0 0 0 0 0 32 62 0 0 
0 0 0 53 0 46 73 52 0 0 0 
0 0 0 0 0 46 0 0 0 0 
0 1 0 0 0 52 97 0 19 
0 0 79 29 0 0 88 0 
0 73 0 0 0 0 0 
0 0 0 0 0 52 
0 0 66 0 0 
0 0 0 11 
0 0 0 
65 0 
0 

#cubic coefficients D: i < j < k
#i: 0
0 0 0 0 0 0 0 0 17 0 0 0 52 0 0 0 0 0 0 70 0 0 0 0 0 0 0 0 0 0 69 0 0 0 23 54 0 0 
0 89 0 0 2 0 0 0 0 0 0 0 0 49 79 68 0 93 0 0 0 0 0 0 0 0 0 0 0 0 0 0 0 12 0 85 41 
0 63 0 0 0 0 0 0 0 0 0 70 0 0 0 0 0 99 0 34 0 0 77 73 0 0 0 0 10 0 0 0 0 12 95 0 
0 0 0 0 53 88 0 0 0 94 0 0 50 0 0 0 0 0 0 0 0 0 49 46 0 0 0 0 0 0 0 0 0 0 0 
0 0 0 0 81 0 0 56 0 63 0 0 0 0 0 78 0 89 85 0 0 0 0 0 65 0 0 0 0 0 30 0 0 0 
0 77 50 4 0 0 0 91 0 76 0 0 74 0 0 0 0 0 0 0 68 0 1 0 0 0 24 0 10 0 0 0 0 
0 0 0 38 0 0 0 0 0 0 0 0 32 0 0 0 0 0 0 0 0 0 41 0 0 0 0 0 0 0 0 0 
0 0 0 0 0 0 0 57 0 0 0 0 0 0 0 0 83 42 0 0 76 48 0 0 0 0 82 0 0 0 44 
0 51 0 0 39 0 53 0 0 0 0 16 0 22 0 0 93 0 92 0 37 0 0 0 0 0 0 73 0 0 
0 0 0 0 0 0 0 0 0 0 0 0 0 0 6 0 0 0 42 0 0 0 0 51 0 0 24 0 97 
0 90 0 0 21 0 0 0 0 54 0 0 0 0 0 0 87 0 34 0 0 85 0 12 0 0 5 0 
0 0 0 0 74 3 0 0 0 39 0 0 0 0 0 9 0 0 0 0 62 89 22 0 0 0 0 
0 35 85 0 0 0 0 0 0 0 0 0 87 0 0 0 21 0 73 93 0 0 19 14 0 0 
0 0 0 0 0 0 0 0 0 0 0 50 67 0 7 0 81 0 57 0 0 0 0 0 0 
0 0 0 0 33 0 0 0 24 75 0 0 0 0 0 0 99 0 0 0 100 0 0 0 
0 0 0 61 0 0 96 0 0 0 0 0 0 40 0 0 0 0 6 56 36 0 45 
0 0 0 70 0 0 0 0 0 23 0 0 0 0 0 0 22 0 0 0 48 0 
0 0 0 0 91 64 0 0 0 0 0 0 0 88 0 0 0 1 0 56 0 
0 0 0 0 0 0 0 0 17 0 67 28 55 0 52 31 0 6 0 0 
73 91 0 0 0 40 39 0 0 70 0 0 0 0 0 0 0 38 0 
0 0 0 68 0 47 0 0 0 0 67 0 95 0 0 0 0 0 
0 100 0 0 0 78 6 0 0 0 0 0 0 0 0 91 0 
0 0 0 10 0 30 0 0 78 0 0 0 0 0 97 0 
0 59 0 0 0 7 0 0 0 0 8 0 0 86 16 
0 0 0 99 0 0 0 0 44 73 69 0 0 0 
19 0 0 0 0 0 23 0 44 0 99 0 0 
99 0 0 0 36 0 0 0 0 0 0 0 
0 0 0 0 0 0 0 0 0 0 0 
0 0 0 90 0 30 0 0 0 0 
100 0 85 0 0 40 44 0 0 
9 76 0 59 0 14 0 0 
0 0 29 0 0 55 82 
0 53 0 0 82 0 
0 58 0 6 22 
0 0 0 0 
0 0 0 
0 94 
79 

#i: 1
0 0 0 0 0 0 0 0 4 0 34 0 0 12 0 86 0 0 60 84 0 0 0 0 0 0 0 0 44 43 0 0 0 94 0 0 0 
58 0 76 0 0 0 0 0 0 0 79 10 0 0 0 0 0 83 0 0 51 0 0 0 0 0 0 0 0 0 39 0 54 0 0 0 
0 0 0 0 0 0 0 0 0 25 0 0 0 0 0 0 0 0 23 0 0 0 78 0 0 0 0 0 0 44 0 61 36 0 0 
0 0 0 94 0 0 0 0 0 0 0 0 0 0 0 93 92 0 0 0 0 0 66 49 0 0 0 0 0 0 99 0 3 0 
25 0 0 0 0 0 0 0 0 0 0 0 0 58 66 0 0 0 0 0 0 0 0 0 0 15 51 94 0 0 89 45 0 
4 0 0 0 1 0 0 0 0 0 0 0 0 49 0 0 0 0 0 0 0 0 0 0 0 0 36 92 76 0 0 62 
0 5 0 0 0 0 0 0 0 0 0 0 58 48 0 0 0 0 0 21 78 41 0 0 0 0 0 0 0 0 0 
86 94 0 0 48 0 0 0 0 0 0 0 0 0 0 0 0 0 0 0 0 0 65 0 0 0 0 0 0 0 
0 0 0 39 0 0 0 18 0 0 0 0 0 0 0 0 0 0 0 0 0 0 45 0 0 0 0 5 0 
40 0 0 0 0 0 53 0 0 0 21 0 0 0 56 0 0 0 0 0 0 0 0 0 0 0 0 55 
0 0 0 0 0 0 0 0 68 58 0 0 0 0 0 0 0 0 0 0 0 45 0 10 0 0 0 
0 0 0 0 0 65 0 0 0 0 0 0 0 0 0 0 0 0 0 0 0 35 0 96 0 0 
0 0 0 84 0 0 0 0 0 0 40 0 0 0 0 0 0 0 0 0 0 93 74 33 0 
0 0 0 0 68 0 0 0 0 0 78 0 0 17 0 0 0 0 0 0 0 0 0 0 
0 0 30 0 0 64 0 0 0 0 0 0 0 32 0 43 0 0 0 0 0 0 0 
0 0 2 0 0 0 0 0 0 57 0 15 86 50 0 0 0 0 0 0 0 26 
0 86 0 93 0 0 0 0 0 0 5 0 49 0 35 0 0 0 0 0 0 
76 0 0 0 0 0 45 0 0 0 99 0 0 0 92 65 0 0 0 0 
0 0 0 0 0 0 0 0 73 0 0 39 0 1 6 0 66 0 34 
0 0 0 0 0 0 0 0 29 95 17 0 0 0 0 0 0 0 
18 0 0 0 0 0 0 93 0 0 0 0 13 0 0 12 82 
11 0 52 77 27 89 0 7 0 0 0 0 0 69 0 0 
0 0 92 0 0 0 0 67 0 74 0 28 0 0 0 
73 0 74 0 89 0 0 2 0 0 0 0 0 63 
10 0 0 0 0 0 0 9 74 0 9 0 0 
0 70 0 0 74 0 0 0 0 0 30 0 
0 0 0 0 0 0 0 0 0 0 0 
0 0 0 0 0 0 0 0 0 0 
0 0 0 0 0 0 0 0 0 
0 0 0 0 0 95 70 0 
39 68 0 0 0 65 97 
0 0 0 0 0 0 
0 0 0 0 0 
0 0 0 0 
0 0 14 
0 46 
0 

#i: 2
25 0 0 0 0 98 0 0 69 0 10 43 0 0 50 0 0 57 0 68 0 0 0 0 60 0 0 0 64 0 0 4 0 0 0 0 
74 43 98 0 41 0 0 0 27 0 0 0 56 0 0 0 0 0 0 0 0 0 0 0 30 59 16 0 0 0 24 0 0 69 100 
0 0 81 0 0 0 0 0 0 0 0 0 87 81 0 0 0 0 0 0 0 49 0 0 0 0 0 0 58 0 12 2 0 0 
0 0 80 0 4 0 0 0 84 0 0 0 0 0 0 20 0 13 0 0 27 0 3 0 0 0 0 0 0 0 0 3 0 
0 0 0 0 0 0 0 0 0 0 17 0 0 0 0 0 0 0 0 0 43 68 0 40 0 58 30 0 0 0 56 0 
0 0 95 0 0 0 0 0 0 91 0 0 0 85 11 0 0 0 0 0 72 0 0 0 0 0 82 0 13 0 0 
0 0 56 0 0 0 0 44 63 0 71 0 0 49 0 0 0 0 0 55 0 63 0 83 46 81 29 0 0 0 
0 16 0 70 0 0 0 0 0 0 0 0 0 0 0 0 0 0 0 45 0 0 0 0 47 0 0 0 90 
0 0 43 30 0 0 0 0 0 65 88 0 0 0 35 95 0 0 0 4 0 77 0 0 9 68 0 0 
0 88 29 77 76 0 0 0 32 0 0 0 84 0 0 16 57 0 71 55 0 0 0 0 0 0 92 
0 0 0 0 6 0 0 0 0 0 0 0 0 0 0 0 0 0 0 0 94 0 0 0 0 9 
57 0 0 90 0 0 0 3 7 0 74 0 0 0 66 0 0 28 0 0 0 0 0 0 0 
68 69 0 52 0 14 31 0 92 0 0 0 95 0 0 0 0 0 0 0 0 0 99 0 
0 52 0 0 0 16 0 0 0 0 0 15 0 0 66 0 0 48 0 0 0 0 0 
0 0 0 0 0 0 0 0 0 61 0 0 0 87 0 0 57 0 78 0 0 35 
0 0 0 2 51 0 21 0 7 0 0 0 0 0 0 0 0 0 84 0 0 
0 0 0 0 0 65 0 0 30 30 63 85 0 0 64 11 65 0 0 0 
0 56 0 74 0 100 0 0 0 0 33 0 0 0 0 0 0 0 0 
0 0 0 0 0 47 0 0 0 0 0 54 0 0 31 56 0 9 
0 0 0 0 0 2 0 76 0 0 52 84 60 0 0 0 0 
0 0 0 0 0 12 0 0 0 0 44 0 0 0 0 0 
0 0 0 0 0 0 0 90 31 0 0 96 0 0 0 
0 0 0 0 0 78 0 0 0 0 0 13 0 0 
0 0 0 0 0 0 39 0 0 0 0 39 0 
0 0 0 0 0 0 0 0 0 0 0 0 
0 0 19 0 0 0 26 0 0 90 0 
0 0 95 0 0 0 0 0 40 87 
0 0 0 24 0 0 0 0 0 
0 0 0 0 0 0 0 0 
0 0 0 33 0 58 0 
15 0 0 0 0 0 
94 25 0 0 0 
0 68 0 0 
0 4 0 
95 11 
0 

#i: 3
0 50 73 0 0 6 0 0 83 0 96 72 0 0 24 22 0 0 0 0 0 43 0 0 0 0 8 0 0 0 0 0 0 0 0 
0 0 0 0 50 65 0 81 0 0 0 0 81 0 0 0 38 0 0 0 0 0 34 0 0 30 0 17 0 0 0 0 0 0 
0 0 0 0 0 0 0 26 0 0 0 0 0 13 0 0 38 0 0 10 0 0 0 22 0 0 0 0 0 0 80 90 0 
30 0 0 0 44 0 0 0 0 0 0 0 0 0 0 0 3 0 0 89 0 0 0 0 0 0 0 0 0 0 0 0 
0 0 0 0 0 14 0 0 0 0 0 41 70 0 0 0 0 0 0 0 0 86 58 0 0 0 3 0 0 0 0 
0 0 25 0 84 0 0 0 82 0 0 73 60 0 0 0 0 4 0 91 0 0 0 14 0 98 0 0 45 0 
0 31 0 0 0 0 0 0 0 0 0 0 0 21 0 95 0 48 0 0 0 0 0 100 0 0 0 11 0 
62 0 0 0 4 83 0 0 0 0 0 0 0 0 0 0 0 0 0 0 0 0 1 0 94 90 0 55 
78 0 0 0 0 53 0 0 0 0 2 0 81 0 0 0 0 0 0 0 25 61 0 0 0 90 59 
0 0 0 0 0 0 0 0 50 0 55 0 0 9 0 0 0 0 0 0 0 48 0 38 0 0 
0 0 63 69 0 0 0 49 0 0 76 0 68 0 0 0 0 58 45 0 0 0 0 0 0 
0 0 0 0 0 0 0 0 0 0 0 53 84 0 69 0 0 84 0 0 0 33 48 52 
0 85 0 0 0 0 14 43 0 0 78 0 0 0 0 19 0 0 0 0 0 0 40 
0 0 0 0 0 0 0 0 0 0 76 34 0 0 13 100 78 49 0 0 0 0 
0 75 82 0 0 78 0 0 0 0 0 0 0 10 0 100 0 0 0 0 0 
68 0 0 14 22 0 92 0 0 0 0 0 0 0 0 0 0 0 0 0 
0 0 68 44 0 0 0 0 0 0 0 30 88 31 0 0 14 0 0 
39 0 0 0 0 0 67 0 0 61 0 57 11 81 0 0 0 0 
0 32 0 0 0 0 0 29 0 0 0 0 0 22 0 0 0 
16 0 0 0 0 0 0 0 0 0 0 25 5 0 0 27 
0 0 61 0 0 0 0 0 51 34 0 0 0 0 0 
0 0 71 0 0 0 0 0 0 0 49 0 1 0 
0 0 98 0 0 0 0 0 0 0 16 75 0 
0 0 0 0 35 0 0 0 34 0 37 0 
0 6 14 14 64 0 53 51 0 0 0 
0 0 24 98 84 0 21 0 0 93 
87 0 0 0 0 68 0 0 0 
0 0 0 0 93 0 0 73 
0 12 0 0 0 0 0 
0 0 0 0 96 51 
0 0 44 16 0 
0 0 0 0 
0 0 66 
0 0 
0 

#i: 4
0 0 42 0 0 0 0 89 0 0 1 0 0 14 0 96 0 12 0 24 0 0 0 0 22 0 39 0 0 0 0 0 0 0 
0 0 69 80 0 0 0 4 0 0 0 0 3 0 0 0 0 0 54 0 0 0 0 0 0 13 0 0 0 0 0 0 0 
62 0 0 47 0 0 30 0 0 96 90 0 83 55 0 0 0 0 0 0 0 88 0 25 0 14 0 0 32 0 0 0 
0 12 0 0 0 0 62 13 35 40 0 0 0 7 82 0 25 39 0 0 0 14 0 0 0 0 0 0 0 0 0 
0 59 52 0 0 0 26 0 0 73 0 0 0 0 0 59 0 0 0 0 0 0 0 95 57 0 0 0 0 27 
0 0 0 0 0 0 0 0 0 37 0 0 0 94 35 57 0 0 6 44 64 95 0 0 0 0 28 0 0 
26 0 0 0 8 14 0 0 0 0 83 69 5 0 0 0 25 0 0 0 0 0 0 0 0 0 3 52 
90 35 29 0 13 0 0 0 0 5 55 0 0 0 60 0 0 23 7 0 0 0 22 0 36 0 0 
0 88 0 0 89 0 0 0 100 0 0 0 0 0 0 0 36 0 0 0 0 0 0 0 61 0 
59 0 0 0 0 0 0 0 0 0 0 70 0 0 0 0 0 0 0 0 0 0 0 79 0 
0 38 40 8 19 0 57 0 0 0 0 0 25 1 65 83 0 0 0 81 49 0 75 0 
0 0 11 0 24 0 0 0 0 0 0 0 0 42 13 0 74 0 11 0 0 0 86 
93 13 32 49 0 0 45 0 0 0 0 1 92 0 29 0 0 0 74 0 0 7 
0 0 0 0 0 0 81 0 83 0 0 5 68 0 0 0 0 0 0 0 0 
0 0 35 99 30 0 0 0 0 0 0 0 0 0 0 0 0 0 0 32 
0 0 0 0 0 0 0 0 0 0 0 0 0 0 0 0 0 0 0 
0 4 0 0 0 0 0 0 0 79 53 0 0 0 0 0 0 0 
0 65 63 69 25 77 0 7 18 0 0 0 0 0 43 0 0 
73 0 0 0 0 0 10 0 0 0 0 0 0 0 0 0 
32 0 0 0 0 55 0 0 1 0 0 0 0 73 0 
90 0 0 0 79 0 0 22 0 0 0 0 28 0 
15 0 0 0 0 72 95 0 0 48 0 0 0 
0 0 65 0 0 0 0 68 0 0 0 46 
19 0 8 0 0 0 0 0 0 0 0 
0 0 0 0 31 0 0 76 0 0 
69 0 24 0 0 72 0 0 0 
0 0 0 0 0 0 76 54 
0 0 0 0 0 32 0 
0 0 0 0 0 0 
36 0 0 0 0 
0 0 27 0 
0 0 0 
0 0 
0 

#i: 5
0 14 0 0 0 0 0 0 0 0 0 29 0 59 0 0 35 0 0 79 0 0 0 0 0 0 0 0 0 0 0 0 0 
0 0 0 0 0 0 0 0 58 0 0 0 0 0 0 0 0 48 39 0 0 0 95 0 0 0 0 0 0 0 0 0 
0 76 0 0 0 0 0 0 0 0 65 14 0 52 0 0 0 0 0 0 0 0 0 0 13 0 0 45 0 0 0 
0 29 0 0 0 0 0 0 0 98 0 0 0 0 73 0 0 0 27 0 0 0 0 0 0 0 79 0 0 0 
0 0 34 0 0 0 0 0 0 0 0 0 40 0 80 0 0 0 0 0 0 0 19 0 21 74 0 70 0 
90 28 0 0 0 63 0 11 0 16 0 0 41 0 0 0 0 0 0 48 0 0 0 0 0 0 0 0 
92 0 0 0 0 0 0 0 0 0 0 0 0 0 0 0 0 0 0 0 6 42 0 0 0 0 0 
18 0 0 0 0 0 12 58 0 67 39 80 0 12 0 0 0 91 0 60 0 0 0 17 0 13 
0 0 0 59 0 0 0 0 0 0 0 68 0 39 0 85 0 0 0 0 48 88 0 40 0 
0 0 46 0 0 0 0 0 67 0 0 0 0 84 0 0 0 81 0 0 58 0 0 0 
0 0 0 0 0 27 0 81 0 0 0 3 40 0 0 0 0 0 44 91 0 62 0 
0 0 0 0 0 0 0 7 0 0 14 0 37 0 0 0 0 0 0 0 0 0 
59 0 0 13 0 92 0 0 0 0 0 0 0 0 0 0 0 89 0 0 71 
0 4 88 93 31 0 94 0 0 0 0 10 0 0 17 0 0 0 0 0 
0 0 0 0 0 22 0 0 0 0 33 0 0 0 0 0 43 0 0 
47 0 0 0 0 0 0 0 0 0 0 0 56 0 62 0 0 0 
0 0 3 0 82 0 0 0 0 0 74 0 0 0 0 0 12 
0 0 71 0 0 0 0 75 72 0 0 0 0 0 80 47 
0 89 20 90 77 0 0 0 0 0 0 0 0 0 0 
0 0 0 0 0 0 19 0 0 73 0 87 81 0 
0 0 0 0 0 46 0 0 0 95 51 29 62 
0 0 0 0 0 0 0 0 0 0 0 34 
48 0 0 0 0 26 0 0 0 0 0 
39 6 0 0 0 0 0 0 0 0 
0 0 0 54 21 0 0 61 0 
37 0 74 41 0 77 0 68 
0 38 0 0 99 0 0 
73 0 0 100 0 0 
0 0 59 0 44 
30 0 0 0 
100 0 13 
0 0 
0 

#i: 6
94 42 0 42 0 0 65 0 0 0 0 0 0 0 0 0 89 0 0 0 0 0 0 0 0 40 0 0 12 0 17 0 
0 0 9 41 0 0 0 0 0 22 0 0 0 0 0 32 42 0 0 76 0 23 73 82 83 39 0 0 0 0 0 
0 0 0 0 0 2 0 93 0 0 0 0 0 0 0 0 0 0 0 0 0 0 0 64 0 0 0 0 0 0 
0 0 0 0 0 30 0 0 87 0 0 38 0 22 0 0 62 46 4 0 33 0 88 62 0 0 0 0 0 
0 0 0 84 0 0 0 0 0 0 100 0 0 0 0 0 0 0 0 0 0 0 0 7 0 0 0 98 
0 0 0 0 77 0 0 0 0 59 0 0 0 25 0 0 71 60 45 0 0 0 0 33 0 0 0 
0 0 0 0 0 90 0 0 0 0 0 0 17 94 0 0 0 0 0 68 0 0 7 0 0 0 
0 86 0 0 0 0 0 61 0 0 0 95 21 0 0 0 0 0 0 0 0 0 0 0 0 
0 0 0 88 36 87 0 0 0 0 78 0 0 0 0 0 0 0 100 89 0 0 0 0 
0 0 60 73 85 0 51 0 87 0 0 8 0 0 0 0 0 0 0 0 0 0 0 
38 0 0 0 0 100 0 48 0 1 0 0 0 56 0 0 0 0 9 0 0 0 
0 0 0 0 72 0 0 0 0 51 0 0 0 0 0 0 0 0 0 0 0 
0 0 0 0 0 0 0 76 0 16 0 0 0 0 56 0 0 0 0 0 
0 26 97 0 40 0 0 0 0 0 0 0 94 0 0 0 36 48 76 
0 0 24 0 0 0 0 88 0 0 0 77 0 0 40 0 0 47 
0 0 0 0 63 0 53 0 0 0 36 25 0 0 0 0 0 
46 0 0 0 0 17 0 68 0 0 18 64 0 0 0 0 
0 0 0 0 76 79 0 0 0 0 39 0 0 0 0 
0 0 96 0 0 0 89 99 80 0 49 76 0 0 
34 0 0 0 0 0 0 52 0 0 0 99 0 
0 0 0 0 98 0 65 0 0 0 0 0 
63 0 0 0 0 0 0 14 22 0 0 
49 0 0 50 0 0 0 0 0 23 
0 60 0 0 0 45 79 0 0 
0 1 21 0 26 0 0 0 
18 59 2 0 0 0 0 
0 0 0 0 0 0 
0 0 0 0 0 
0 51 0 21 
0 0 0 
19 0 
81 

#i: 7
0 0 0 21 0 0 0 0 82 0 0 0 0 0 0 0 0 0 0 27 0 72 7 59 0 0 0 0 0 0 0 
58 0 0 32 0 0 0 0 0 0 0 0 0 0 0 0 0 0 0 0 0 73 0 0 0 28 3 0 0 0 
0 0 0 0 0 0 0 0 99 12 45 64 0 0 0 0 0 0 0 0 0 0 0 0 62 0 0 74 70 
0 0 0 0 0 0 0 0 83 0 20 0 0 0 0 0 0 0 0 0 0 0 28 0 0 0 0 3 
69 0 9 79 0 23 0 0 0 0 0 0 84 61 0 0 5 0 64 50 0 0 0 25 0 16 0 
0 0 0 0 0 0 0 0 0 0 0 0 89 36 0 0 0 0 58 39 0 0 28 9 0 0 
0 0 0 0 27 0 0 0 0 0 0 0 0 0 31 10 0 50 0 0 0 0 3 0 0 
86 0 0 0 0 0 0 0 36 0 0 34 0 0 87 0 0 0 0 26 0 0 35 0 
0 0 0 0 68 9 0 0 0 0 0 0 0 0 29 0 0 0 0 31 0 0 0 
0 54 0 0 0 0 52 0 76 0 0 23 0 0 34 48 0 0 0 0 0 19 
36 29 0 0 0 0 0 0 0 0 0 0 0 0 0 78 0 59 0 76 69 
0 19 0 0 0 66 0 4 0 64 0 0 42 53 0 0 48 0 0 0 
0 0 0 66 0 0 0 0 0 0 0 0 69 37 79 0 0 0 0 
0 0 0 56 0 0 69 0 0 0 2 35 0 0 0 0 0 35 
0 0 39 0 0 0 66 0 0 0 0 0 0 0 0 79 0 
93 0 9 0 0 0 0 0 0 18 0 62 70 22 0 0 
0 55 0 0 0 0 12 0 63 0 0 49 0 60 26 
63 0 7 95 77 38 0 0 0 0 65 0 90 84 
0 0 0 0 72 84 0 0 0 0 0 0 0 
0 0 0 0 0 0 0 0 77 0 0 0 
0 18 0 57 0 73 0 0 0 0 0 
0 0 0 0 0 0 0 0 0 35 
0 52 0 0 0 0 0 0 0 
0 0 0 0 0 14 0 0 
0 4 73 0 0 0 0 
0 0 0 0 73 0 
0 0 21 0 0 
0 0 0 0 
91 0 0 
52 0 
0 

#i: 8
73 0 48 0 28 0 0 0 0 0 0 0 0 0 0 4 0 77 0 0 0 60 0 0 0 0 0 0 0 86 
0 0 26 0 0 0 0 7 0 0 69 35 32 94 94 0 0 0 36 0 0 0 0 0 0 90 0 4 0 
0 63 0 89 49 100 0 0 0 8 0 0 55 0 0 9 0 0 0 0 0 0 0 4 0 0 90 51 
0 0 0 0 0 0 0 0 0 53 0 10 0 0 0 85 0 46 0 2 0 16 0 0 0 0 0 
0 0 0 0 94 0 0 65 0 33 0 0 78 0 71 52 0 0 0 73 0 0 0 0 0 0 
51 0 0 0 0 0 12 97 0 61 0 0 0 0 0 0 0 0 0 0 0 0 0 0 0 
40 0 0 0 100 0 98 0 0 0 0 0 0 0 51 55 0 0 91 0 0 85 0 0 
0 0 34 7 96 0 0 0 0 0 19 0 0 0 0 0 0 0 0 0 62 0 0 
0 0 0 63 0 0 0 0 15 47 0 0 53 30 0 63 0 0 0 0 0 0 
76 52 0 0 0 0 0 0 0 51 0 0 88 0 0 0 0 5 0 0 0 
0 0 0 94 0 0 0 0 0 0 92 13 0 0 0 22 0 0 0 63 
0 0 0 0 0 0 0 0 0 51 0 0 0 0 0 0 0 0 14 
0 84 0 0 0 0 0 0 47 0 0 0 0 88 0 0 24 0 
0 0 0 0 32 55 0 0 0 66 0 0 0 58 0 0 0 
0 0 0 29 0 0 20 0 0 0 0 0 0 0 0 0 
7 0 0 80 0 23 0 100 47 0 0 0 0 0 0 
0 0 0 39 0 0 0 0 0 0 0 65 0 0 
0 3 48 0 0 0 0 14 92 0 95 0 0 
0 0 91 0 0 0 0 0 49 0 0 0 
86 0 0 0 43 0 0 0 0 0 0 
23 0 0 90 0 97 0 0 71 0 
0 36 0 59 0 22 0 47 0 
0 0 19 0 6 0 42 0 
0 0 0 0 0 0 42 
0 0 47 0 0 47 
0 59 0 0 9 
0 0 16 0 
0 82 0 
0 0 
87 

#i: 9
0 0 0 0 0 0 14 55 76 23 0 0 52 0 0 0 0 84 0 21 0 40 0 0 0 4 0 50 59 
0 0 0 0 0 0 61 0 0 0 49 0 0 0 0 0 18 0 0 0 0 14 0 0 76 0 0 0 
0 0 0 0 0 41 0 0 63 0 0 0 76 0 26 0 98 4 0 0 0 92 81 0 3 0 0 
0 0 0 22 0 0 0 0 33 17 0 0 0 0 0 0 0 0 59 0 24 0 0 0 0 0 
0 65 0 0 75 72 0 0 0 84 34 0 20 0 0 0 0 0 0 0 0 0 17 0 0 
0 0 0 0 0 0 0 75 0 0 0 0 60 0 0 0 0 0 0 0 0 27 0 0 
0 0 69 24 40 0 56 0 0 0 0 0 3 0 44 0 70 0 0 0 14 0 34 
27 0 0 0 0 85 0 74 0 0 0 0 85 0 0 0 13 47 45 35 0 0 
0 0 0 0 0 7 0 0 0 0 87 0 0 0 0 0 24 0 0 0 81 
78 0 0 39 0 26 0 0 0 0 0 0 0 0 0 0 0 0 0 63 
0 0 1 0 0 0 23 0 0 55 4 0 0 0 0 95 0 92 0 
0 0 0 0 0 0 97 32 0 0 0 0 0 0 0 0 0 92 
0 0 0 0 0 0 0 91 0 0 0 0 0 0 90 0 0 
33 0 85 0 0 51 88 0 0 88 0 0 11 0 0 46 
0 0 0 98 0 0 32 0 0 29 0 0 35 0 2 
0 64 57 0 0 0 0 0 62 0 28 0 0 0 
0 0 0 0 0 0 0 0 0 0 0 0 0 
21 0 0 0 0 0 84 57 99 0 0 30 
21 0 79 0 0 0 0 0 0 0 0 
16 0 35 0 0 92 92 0 27 0 
0 0 31 0 0 4 0 59 0 
0 0 3 0 0 0 0 0 
0 0 0 41 51 0 0 
0 8 0 50 0 0 
0 90 0 0 21 
78 0 0 97 
0 93 66 
9 0 
0 

#i: 10
53 0 55 0 0 68 59 0 0 0 0 0 0 0 0 0 0 0 0 0 0 0 0 0 68 0 0 0 
55 0 0 41 0 0 0 0 46 0 12 0 0 0 0 0 53 0 0 0 0 0 0 0 29 0 0 
0 0 0 0 0 0 0 0 0 42 0 0 0 0 0 79 0 0 49 42 0 0 9 0 0 0 
0 0 2 0 0 0 0 0 96 0 5 18 4 0 0 0 2 0 0 79 0 0 3 31 0 
0 0 51 0 0 0 0 0 0 0 0 0 43 0 0 0 87 0 0 27 41 0 0 0 
0 0 73 5 0 0 0 40 0 97 0 0 88 0 0 0 0 0 0 33 4 0 0 
0 0 0 0 7 0 0 0 0 77 0 0 21 0 0 34 68 0 0 0 75 0 
0 0 0 0 56 0 0 51 0 32 0 0 0 0 0 0 0 0 0 0 0 
0 0 0 0 0 0 0 0 0 0 0 0 62 0 93 0 83 5 0 0 
0 0 0 0 11 0 0 0 45 3 0 0 0 0 0 0 0 32 50 
0 0 0 0 0 0 0 0 0 0 0 0 68 0 62 0 7 0 
0 0 31 0 0 55 0 0 0 0 61 0 0 47 0 0 15 
0 22 0 0 0 0 0 0 24 0 0 0 0 61 0 0 
0 0 0 0 0 0 0 0 54 0 0 25 0 0 0 
0 2 0 0 0 0 57 0 0 84 0 0 24 0 
0 22 0 0 0 0 0 21 0 0 54 0 0 
0 0 0 0 25 0 0 0 0 0 85 0 
78 0 0 19 0 0 0 99 0 0 0 
0 0 0 0 0 0 0 0 34 47 
22 0 0 31 1 0 0 0 0 
0 52 3 0 0 63 0 0 
0 0 47 0 0 0 45 
0 0 0 10 0 0 
0 0 27 39 0 
0 0 0 0 
0 0 47 
0 6 
0 

#i: 11
0 0 86 0 0 0 0 0 0 0 0 0 0 0 0 0 0 0 0 26 0 0 67 0 0 0 0 
0 0 0 0 0 22 0 0 0 14 0 0 0 0 0 34 0 42 0 0 0 1 0 0 0 85 
0 0 0 88 0 0 0 0 83 0 91 0 0 0 0 0 0 0 0 0 0 58 0 0 0 
0 77 42 0 33 59 98 0 29 0 0 0 0 0 0 0 0 0 0 0 0 0 0 47 
82 65 0 10 44 0 0 0 0 0 0 0 0 0 0 0 84 0 0 0 0 0 0 
0 0 0 84 0 0 89 0 52 98 13 0 0 0 0 0 0 0 0 0 0 18 
25 0 13 0 72 0 0 0 0 0 0 0 0 0 0 0 14 69 0 0 10 
0 0 0 0 44 37 0 51 7 0 0 0 0 0 0 0 0 18 0 0 
0 0 0 0 0 18 0 39 0 0 0 0 0 0 0 29 0 72 41 
0 0 0 0 0 0 9 0 0 0 0 0 0 0 0 0 0 0 
0 0 0 0 23 60 0 94 0 8 0 0 0 0 19 0 0 
68 0 0 0 0 0 57 0 15 0 68 72 65 0 0 0 
0 75 0 58 0 99 70 0 0 41 0 0 0 24 0 
0 26 24 0 0 0 0 80 0 0 10 42 0 0 
0 82 0 0 34 0 7 0 50 0 85 0 0 
2 20 0 0 30 0 13 39 0 0 61 0 
0 0 0 0 0 0 0 0 0 0 0 
0 0 0 22 0 72 77 0 0 89 
19 88 0 66 0 0 60 0 54 
0 24 23 0 0 0 0 0 
0 0 0 0 0 0 6 
0 0 65 4 0 49 
0 0 0 0 0 
0 0 0 0 
0 51 0 
42 0 
59 

#i: 12
0 0 0 0 0 0 82 0 0 0 67 0 0 0 0 0 0 0 75 0 0 87 0 0 77 0 
0 0 51 0 0 0 0 0 0 63 68 97 0 88 0 0 0 0 0 0 0 95 0 0 0 
0 0 6 0 0 0 0 0 44 0 52 0 46 29 0 28 0 0 35 0 0 0 0 0 
0 0 0 0 0 0 0 0 0 0 0 96 0 16 0 0 0 0 0 0 0 0 0 
21 0 28 0 79 0 0 0 0 0 0 99 0 0 90 0 0 0 0 0 0 0 
0 0 0 0 0 0 98 0 59 4 0 0 0 0 0 87 0 0 52 0 0 
56 0 0 0 60 0 0 0 0 0 52 70 0 0 0 0 0 0 0 0 
80 0 14 0 49 0 20 0 0 0 0 0 0 76 0 0 0 75 0 
0 0 0 0 0 0 0 0 0 0 0 0 0 67 13 55 0 0 
8 0 0 0 0 38 0 0 0 0 0 0 80 0 0 0 0 
0 6 0 85 0 90 0 97 81 0 0 0 0 61 0 0 
0 44 91 0 0 0 0 0 0 0 0 0 0 0 0 
92 0 0 87 0 0 0 90 0 0 0 0 0 0 
0 9 37 0 0 0 79 0 0 0 18 0 0 
0 0 0 0 71 0 0 99 89 0 54 0 
16 0 0 0 0 0 0 0 0 0 0 
0 0 0 2 0 0 75 8 0 0 
0 0 0 0 0 19 0 0 77 
0 0 0 0 0 25 0 0 
0 0 0 0 0 0 56 
0 67 63 0 0 0 
0 0 0 0 0 
5 0 0 12 
0 0 59 
0 69 
0 

#i: 13
54 0 0 0 22 18 0 0 0 0 77 0 0 0 0 0 0 18 0 0 0 0 0 67 68 
0 0 0 68 0 1 55 0 0 0 0 0 0 0 0 0 0 0 0 0 0 53 0 0 
0 0 0 0 83 0 0 43 76 0 71 75 0 0 0 33 7 0 0 0 0 93 73 
0 0 0 0 0 0 0 37 0 0 0 0 0 0 14 0 0 0 0 0 0 0 
0 0 0 0 0 94 0 22 39 79 68 0 90 92 0 0 0 0 0 0 0 
0 0 0 0 88 0 0 0 95 0 81 0 0 17 0 0 51 0 74 98 
0 6 0 37 69 80 72 71 0 0 0 46 0 0 0 0 0 0 0 
98 24 0 29 0 0 0 0 76 0 0 0 0 57 0 0 0 0 
0 0 0 0 52 55 0 0 0 75 0 0 0 55 0 0 0 
0 0 0 0 0 0 0 0 0 0 0 0 0 0 0 0 
0 100 0 0 0 0 0 69 1 52 0 0 0 0 0 
0 0 0 80 0 87 0 0 0 35 44 0 0 0 
72 0 0 0 25 0 0 20 0 0 0 87 27 
0 0 0 0 28 0 0 0 0 0 0 0 
0 2 0 0 49 0 0 0 0 0 0 
0 66 0 0 0 0 48 0 0 0 
0 0 0 0 0 0 32 0 52 
0 0 0 0 0 0 0 96 
0 0 0 0 100 15 0 
73 0 41 66 99 0 
0 0 0 0 0 
20 0 0 0 
0 35 0 
0 0 
0 

#i: 14
0 76 0 1 0 0 0 0 0 76 0 0 0 0 75 0 0 0 86 37 24 0 0 0 
0 0 0 0 0 0 0 0 0 0 0 0 0 30 0 0 27 0 0 68 0 0 0 
0 0 81 0 0 90 48 0 36 0 0 0 64 0 0 0 54 35 0 13 0 0 
0 44 0 0 0 0 0 0 0 0 0 0 0 0 0 0 26 0 0 0 0 
0 85 0 0 0 0 0 0 0 0 0 0 0 0 0 11 0 0 0 0 
0 0 0 0 0 0 0 0 0 0 0 0 82 0 0 0 60 0 0 
0 0 0 0 0 73 0 14 0 0 7 0 0 87 0 0 0 0 
0 8 0 0 0 41 0 0 3 0 0 49 0 60 84 92 0 
0 0 20 0 70 0 97 0 85 83 0 0 88 0 0 0 
0 23 0 23 8 0 0 0 0 0 27 0 0 53 0 
54 49 0 87 0 76 97 0 0 80 95 0 0 0 
0 0 0 21 0 0 0 0 0 0 0 0 49 
0 0 0 0 0 0 0 0 0 95 47 0 
0 0 0 0 5 26 0 0 0 0 0 
0 0 0 0 0 0 0 0 0 0 
21 89 0 0 0 0 7 0 0 
0 0 0 0 0 79 0 0 
0 73 0 33 0 0 0 
0 91 0 0 23 0 
0 0 0 0 0 
0 0 0 6 
0 2 0 
0 0 
0 

#i: 15
0 46 64 0 76 0 11 0 0 0 7 0 25 0 0 0 0 0 0 0 0 0 0 
0 0 38 0 11 0 0 32 0 0 0 0 59 44 0 0 0 0 0 0 0 0 
77 0 0 78 27 0 0 0 0 0 0 0 23 0 0 0 0 0 0 0 0 
0 72 28 0 49 0 0 0 49 70 32 10 75 0 0 0 0 0 4 0 
0 11 46 0 0 25 0 0 0 0 0 91 0 0 94 0 14 28 0 
0 0 0 0 0 17 0 88 28 0 13 0 59 0 0 0 0 0 
0 0 0 16 0 0 0 0 0 19 0 55 43 0 0 0 0 
0 0 27 31 0 0 0 0 63 42 0 94 0 0 0 0 
0 0 0 39 0 0 12 0 0 0 0 0 0 0 0 
0 0 91 0 0 0 45 94 79 0 0 83 0 0 
0 0 22 0 0 0 77 0 0 94 0 0 0 
9 0 0 0 0 0 0 0 0 0 0 94 
63 0 95 0 0 0 0 0 0 33 0 
0 0 61 0 0 0 37 56 0 91 
0 0 33 0 0 0 0 0 20 
5 0 97 0 0 0 0 85 
0 0 0 0 0 45 0 
66 0 0 0 0 87 
0 0 0 0 0 
38 0 0 51 
0 95 76 
5 0 
73 

#i: 16
0 67 0 95 56 22 0 0 0 0 55 0 0 0 0 0 0 63 0 0 0 0 
0 0 0 83 45 0 0 32 9 0 43 83 78 0 0 0 58 88 0 0 0 
77 0 0 0 0 43 0 0 0 0 0 0 0 0 54 24 0 0 0 0 
0 0 66 0 0 0 12 0 0 13 0 0 0 69 0 0 0 0 0 
0 0 89 0 95 10 0 0 0 0 0 0 0 0 0 0 0 70 
0 0 0 45 0 0 0 0 0 22 0 0 0 0 0 18 0 
13 90 0 0 0 0 0 0 0 74 0 0 0 0 35 0 
30 0 57 0 0 0 85 0 0 0 0 27 0 0 93 
0 0 0 0 0 36 0 30 0 0 15 0 0 0 
0 46 0 0 0 94 0 0 0 0 0 0 0 
0 0 0 0 97 0 0 0 0 0 7 0 
78 0 0 0 0 0 54 52 0 0 0 
33 35 84 0 0 28 43 0 0 0 
0 0 0 26 0 43 0 35 0 
0 0 21 0 0 0 0 90 
0 0 0 0 0 74 0 
0 0 0 0 0 0 
0 0 0 0 0 
0 0 0 0 
0 0 20 
0 0 
0 

#i: 17
15 0 3 46 0 0 29 0 0 5 0 0 72 0 0 90 12 0 20 0 0 
0 0 0 49 74 0 0 6 0 30 0 0 0 0 0 0 0 0 0 0 
0 2 4 0 0 0 0 0 54 0 0 0 0 0 0 0 0 1 5 
31 2 0 0 0 0 0 0 0 0 0 0 0 96 0 0 0 0 
0 0 44 0 0 0 0 0 0 0 0 0 0 83 0 0 12 
12 79 0 0 80 0 0 0 79 0 0 0 55 0 0 0 
0 0 0 74 0 8 0 0 0 0 3 0 50 0 0 
13 35 97 0 0 0 29 82 0 68 0 29 19 0 
0 74 0 5 0 0 0 0 0 0 0 98 78 
51 0 0 0 0 5 31 0 0 0 0 0 
0 85 0 0 65 0 0 0 0 0 18 
0 15 46 62 0 0 0 0 64 0 
0 30 0 3 0 0 0 72 0 
0 29 0 43 0 0 0 0 
0 99 0 0 8 0 26 
0 0 59 0 65 0 
0 0 0 0 76 
0 0 0 0 
0 19 87 
6 0 
0 

#i: 18
0 0 0 0 22 0 0 0 47 0 0 0 0 0 0 0 0 100 0 0 
0 0 0 0 0 92 0 0 0 36 0 50 46 0 0 0 0 0 0 
0 0 44 0 0 0 0 0 0 18 57 0 0 0 60 0 0 0 
0 0 0 0 0 0 100 0 38 74 25 0 0 0 0 0 0 
0 0 0 95 0 0 0 0 0 20 0 51 39 0 98 21 
0 44 0 0 56 0 0 0 0 0 98 0 0 0 76 
9 0 0 0 0 0 0 66 0 0 0 0 0 0 
28 0 0 0 84 0 0 0 0 33 0 0 13 
0 0 0 0 0 0 0 0 0 0 0 47 
0 0 0 0 0 0 0 0 0 41 0 
0 57 50 0 0 29 0 0 76 58 
0 0 0 23 0 0 0 0 0 
97 0 0 16 0 0 0 17 
0 0 0 0 0 86 0 
99 0 0 0 0 63 
90 0 0 0 0 
0 0 62 0 
0 0 0 
0 0 
0 

#i: 19
0 0 25 0 46 0 26 0 84 0 0 0 0 0 43 20 0 0 47 
12 0 0 0 0 0 0 0 0 0 0 0 0 0 45 63 0 0 
0 82 0 0 39 60 0 0 0 0 0 0 14 0 0 0 0 
0 0 0 0 0 0 0 0 57 0 0 88 0 0 49 69 
0 0 0 0 0 0 0 0 0 0 87 85 23 0 33 
0 0 0 0 0 0 0 0 0 0 74 0 100 0 
0 0 0 0 0 0 40 0 0 38 0 32 60 
0 0 0 0 58 76 0 0 0 0 0 0 
0 0 0 0 0 83 0 0 0 0 0 
94 49 0 40 0 0 0 0 0 0 
0 0 7 0 0 0 0 38 0 
0 52 0 0 0 0 1 0 
0 29 0 0 0 0 87 
0 52 74 0 0 0 
0 0 0 37 0 
49 31 0 0 
0 0 0 
82 0 
0 

#i: 20
84 0 18 0 0 0 0 0 0 75 28 0 0 62 0 41 0 0 
0 0 0 42 64 0 0 93 0 0 0 87 0 0 0 0 86 
0 62 0 0 0 58 0 0 0 29 0 17 0 99 31 0 
0 0 60 0 43 5 0 0 8 0 0 0 0 0 0 
66 0 0 0 0 0 16 0 50 0 0 0 0 0 
0 0 0 85 0 76 0 0 0 0 0 0 5 
69 0 0 0 0 24 0 0 0 0 0 0 
0 0 64 29 0 0 0 0 0 0 0 
0 69 0 0 0 0 0 0 0 0 
0 0 41 32 0 0 0 91 0 
0 0 0 39 0 100 0 36 
0 0 0 0 0 0 14 
47 0 0 0 0 0 
0 0 77 0 0 
26 0 0 0 
0 0 0 
68 0 
0 

#i: 21
27 71 0 71 0 14 96 0 0 0 0 62 0 0 0 0 0 
0 0 0 0 0 0 0 0 0 0 0 75 39 0 0 0 
0 0 0 45 0 0 0 0 0 76 32 0 0 97 0 
0 94 0 0 0 0 88 0 0 2 9 0 26 0 
87 0 0 0 0 34 0 0 0 96 61 0 0 
81 0 7 0 0 45 42 6 0 65 0 14 
0 0 0 0 0 0 78 0 0 0 0 
93 0 0 0 0 0 0 0 0 0 
0 90 52 0 0 0 46 0 0 
51 0 0 0 0 0 0 0 
22 0 0 0 0 30 0 
58 0 0 0 0 69 
0 0 0 70 0 
67 0 0 0 
0 0 0 
91 0 
0 

#i: 22
0 0 0 33 0 0 53 0 0 0 66 57 70 0 0 0 
0 0 0 0 45 0 34 81 0 0 0 0 100 0 0 
0 89 0 0 0 0 0 0 0 0 0 0 0 88 
0 79 0 55 0 0 0 0 90 63 0 0 58 
0 0 71 24 12 0 0 0 0 0 0 0 
77 0 0 31 0 0 0 0 0 0 0 
0 0 0 51 0 84 0 0 0 100 
67 0 0 0 22 0 0 0 0 
99 29 0 53 0 95 0 0 
0 39 0 81 0 25 0 
0 69 0 0 0 73 
62 0 16 0 0 
19 0 56 0 
93 0 98 
0 73 
0 

#i: 23
0 73 0 0 31 0 0 34 75 0 0 0 40 31 17 
0 0 0 0 34 0 0 0 0 0 0 0 39 0 
96 0 31 0 0 0 0 0 0 0 0 24 0 
0 0 0 0 0 0 0 0 22 65 0 0 
0 0 82 0 0 0 75 0 88 72 0 
0 38 0 88 15 0 0 0 0 0 
0 0 0 12 0 0 13 0 52 
22 0 0 8 0 0 0 0 
0 0 0 0 26 47 0 
0 0 0 0 70 0 
0 0 0 64 0 
0 0 0 10 
0 0 0 
0 19 
10 

#i: 24
0 70 0 12 0 0 0 0 0 0 0 0 54 58 
0 0 0 16 0 0 0 0 0 0 0 0 61 
0 0 0 0 0 0 25 29 0 0 0 0 
0 0 0 0 0 0 59 34 71 44 12 
0 0 0 0 0 0 0 83 0 0 
0 0 0 0 0 0 69 17 67 
0 0 0 0 0 80 0 0 
0 0 11 0 0 0 0 
87 0 0 0 4 6 
59 0 97 66 0 
30 75 0 0 
0 0 0 
0 0 
0 

#i: 25
0 0 0 0 52 31 40 0 0 0 0 0 0 
0 0 0 0 37 0 7 0 0 28 0 9 
0 35 0 0 0 0 0 36 0 0 0 
0 0 0 0 0 0 0 0 75 0 
33 0 83 62 0 0 0 0 0 
0 37 0 0 0 10 0 0 
0 0 0 0 0 0 80 
0 0 0 0 0 0 
0 83 85 0 47 
0 0 0 0 
0 0 97 
81 0 
0 

#i: 26
26 0 83 22 52 0 72 0 75 0 0 0 
0 0 57 0 0 15 0 12 11 93 0 
13 62 0 0 36 25 0 0 74 66 
93 0 0 0 48 0 0 0 0 
0 97 0 0 0 55 0 63 
0 0 29 0 0 0 0 
0 0 98 0 0 0 
13 5 0 0 0 
0 0 2 0 
0 0 0 
0 0 
0 

#i: 27
0 0 0 0 0 56 0 0 0 0 96 
89 0 0 0 0 66 0 0 0 0 
0 0 0 0 0 0 0 0 17 
0 0 0 0 0 0 0 0 
0 0 0 0 0 0 0 
0 0 0 30 0 0 
0 0 0 57 0 
0 0 50 0 
0 39 75 
0 0 
0 

#i: 28
0 0 0 90 0 0 0 0 0 0 
0 0 0 0 0 0 0 0 0 
0 0 0 0 0 0 80 0 
0 0 0 0 0 0 0 
48 0 0 62 25 1 
52 0 82 70 0 
21 20 0 0 
0 0 26 
0 0 
0 

#i: 29
0 0 0 0 0 1 89 0 0 
0 0 0 0 0 0 0 61 
0 0 0 0 0 0 0 
0 0 0 0 0 79 
29 0 0 0 0 
0 0 11 0 
9 0 0 
0 0 
0 

#i: 30
0 40 0 0 0 0 0 0 
0 0 0 0 0 59 0 
0 0 51 20 0 0 
0 78 0 0 0 
0 0 20 0 
0 0 0 
0 63 
0 

#i: 31
97 0 0 0 0 58 0 
0 0 0 0 0 0 
0 88 0 53 0 
0 0 4 0 
0 0 0 
0 0 
0 

#i: 32
0 77 0 0 0 0 
60 0 0 0 0 
0 0 0 87 
0 0 0 
0 74 
0 

#i: 33
19 58 73 0 0 
100 0 0 0 
0 0 79 
0 0 
0 

#i: 34
0 0 0 91 
0 0 79 
0 0 
0 

#i: 35
0 0 0 
0 0 
63 

#i: 36
0 0 
0 

#i: 37
0 

#i: 38

#i: 39

ckp-40-0.25.txt